p cnf 173 694
-1 -33 0
-2 -33 0
1 2 33 0
1 2 -34 0
-1 -2 -34 0
-1 2 34 0
1 -2 34 0
33 -35 0
-3 -35 0
3 -33 35 0
3 -33 -36 0
-3 33 -36 0
3 33 36 0
-3 -33 36 0
35 -37 0
-4 -37 0
4 -35 37 0
4 -35 -38 0
-4 35 -38 0
4 35 38 0
-4 -35 38 0
37 -39 0
-5 -39 0
5 -37 39 0
5 -37 -40 0
-5 37 -40 0
5 37 40 0
-5 -37 40 0
39 -41 0
-6 -41 0
6 -39 41 0
6 -39 -42 0
-6 39 -42 0
6 39 42 0
-6 -39 42 0
41 -43 0
-7 -43 0
7 -41 43 0
7 -41 -44 0
-7 41 -44 0
7 41 44 0
-7 -41 44 0
43 -45 0
-8 -45 0
8 -43 45 0
8 -43 -46 0
-8 43 -46 0
8 43 46 0
-8 -43 46 0
3 -47 0
1 -47 0
-1 -3 47 0
-1 -3 -48 0
1 3 -48 0
1 -3 48 0
-1 3 48 0
-2 -4 49 0
-4 -47 49 0
-2 -47 49 0
2 4 -49 0
4 47 -49 0
2 47 -49 0
4 -49 -50 0
2 -49 -50 0
47 -49 -50 0
-4 49 50 0
-2 49 50 0
-47 49 50 0
-2 -4 -47 50 0
2 4 47 -50 0
-3 -5 51 0
-5 -49 51 0
-3 -49 51 0
3 5 -51 0
5 49 -51 0
3 49 -51 0
5 -51 -52 0
3 -51 -52 0
49 -51 -52 0
-5 51 52 0
-3 51 52 0
-49 51 52 0
-3 -5 -49 52 0
3 5 49 -52 0
-4 -6 53 0
-6 -51 53 0
-4 -51 53 0
4 6 -53 0
6 51 -53 0
4 51 -53 0
6 -53 -54 0
4 -53 -54 0
51 -53 -54 0
-6 53 54 0
-4 53 54 0
-51 53 54 0
-4 -6 -51 54 0
4 6 51 -54 0
-5 -7 55 0
-7 -53 55 0
-5 -53 55 0
5 7 -55 0
7 53 -55 0
5 53 -55 0
7 -55 -56 0
5 -55 -56 0
53 -55 -56 0
-7 55 56 0
-5 55 56 0
-53 55 56 0
-5 -7 -53 56 0
5 7 53 -56 0
-6 -8 57 0
-8 -55 57 0
-6 -55 57 0
6 8 -57 0
8 55 -57 0
6 55 -57 0
8 -57 -58 0
6 -57 -58 0
55 -57 -58 0
-8 57 58 0
-6 57 58 0
-55 57 58 0
-6 -8 -55 58 0
6 8 55 -58 0
7 -59 0
57 -59 0
-7 -57 59 0
-7 -57 -60 0
7 57 -60 0
-7 57 60 0
7 -57 60 0
8 -61 0
59 -61 0
-8 -59 61 0
-8 -59 -62 0
8 59 -62 0
-8 59 62 0
8 -59 62 0
-1 -63 0
-2 -63 0
1 2 63 0
1 2 -64 0
-1 -2 -64 0
-1 2 64 0
1 -2 64 0
63 -65 0
-48 -65 0
48 -63 65 0
48 -63 -66 0
-48 63 -66 0
48 63 66 0
-48 -63 66 0
65 -67 0
-50 -67 0
50 -65 67 0
50 -65 -68 0
-50 65 -68 0
50 65 68 0
-50 -65 68 0
67 -69 0
-52 -69 0
52 -67 69 0
52 -67 -70 0
-52 67 -70 0
52 67 70 0
-52 -67 70 0
69 -71 0
-54 -71 0
54 -69 71 0
54 -69 -72 0
-54 69 -72 0
54 69 72 0
-54 -69 72 0
71 -73 0
-56 -73 0
56 -71 73 0
56 -71 -74 0
-56 71 -74 0
56 71 74 0
-56 -71 74 0
73 -75 0
-58 -75 0
58 -73 75 0
58 -73 -76 0
-58 73 -76 0
58 73 76 0
-58 -73 76 0
75 -77 0
-60 -77 0
60 -75 77 0
60 -75 -78 0
-60 75 -78 0
60 75 78 0
-60 -75 78 0
77 -79 0
-62 -79 0
62 -77 79 0
62 -77 -80 0
-62 77 -80 0
62 77 80 0
-62 -77 80 0
79 -81 0
-61 -81 0
61 -79 81 0
61 -79 -82 0
-61 79 -82 0
61 79 82 0
-61 -79 82 0
-9 -83 0
-10 -83 0
9 10 83 0
9 10 -84 0
-9 -10 -84 0
-9 10 84 0
9 -10 84 0
83 -85 0
-11 -85 0
11 -83 85 0
11 -83 -86 0
-11 83 -86 0
11 83 86 0
-11 -83 86 0
85 -87 0
-12 -87 0
12 -85 87 0
12 -85 -88 0
-12 85 -88 0
12 85 88 0
-12 -85 88 0
87 -89 0
-13 -89 0
13 -87 89 0
13 -87 -90 0
-13 87 -90 0
13 87 90 0
-13 -87 90 0
89 -91 0
-14 -91 0
14 -89 91 0
14 -89 -92 0
-14 89 -92 0
14 89 92 0
-14 -89 92 0
91 -93 0
-15 -93 0
15 -91 93 0
15 -91 -94 0
-15 91 -94 0
15 91 94 0
-15 -91 94 0
93 -95 0
-16 -95 0
16 -93 95 0
16 -93 -96 0
-16 93 -96 0
16 93 96 0
-16 -93 96 0
11 -97 0
9 -97 0
-9 -11 97 0
-9 -11 -98 0
9 11 -98 0
9 -11 98 0
-9 11 98 0
-10 -12 99 0
-12 -97 99 0
-10 -97 99 0
10 12 -99 0
12 97 -99 0
10 97 -99 0
12 -99 -100 0
10 -99 -100 0
97 -99 -100 0
-12 99 100 0
-10 99 100 0
-97 99 100 0
-10 -12 -97 100 0
10 12 97 -100 0
-11 -13 101 0
-13 -99 101 0
-11 -99 101 0
11 13 -101 0
13 99 -101 0
11 99 -101 0
13 -101 -102 0
11 -101 -102 0
99 -101 -102 0
-13 101 102 0
-11 101 102 0
-99 101 102 0
-11 -13 -99 102 0
11 13 99 -102 0
-12 -14 103 0
-14 -101 103 0
-12 -101 103 0
12 14 -103 0
14 101 -103 0
12 101 -103 0
14 -103 -104 0
12 -103 -104 0
101 -103 -104 0
-14 103 104 0
-12 103 104 0
-101 103 104 0
-12 -14 -101 104 0
12 14 101 -104 0
-13 -15 105 0
-15 -103 105 0
-13 -103 105 0
13 15 -105 0
15 103 -105 0
13 103 -105 0
15 -105 -106 0
13 -105 -106 0
103 -105 -106 0
-15 105 106 0
-13 105 106 0
-103 105 106 0
-13 -15 -103 106 0
13 15 103 -106 0
-14 -16 107 0
-16 -105 107 0
-14 -105 107 0
14 16 -107 0
16 105 -107 0
14 105 -107 0
16 -107 -108 0
14 -107 -108 0
105 -107 -108 0
-16 107 108 0
-14 107 108 0
-105 107 108 0
-14 -16 -105 108 0
14 16 105 -108 0
15 -109 0
107 -109 0
-15 -107 109 0
-15 -107 -110 0
15 107 -110 0
-15 107 110 0
15 -107 110 0
16 -111 0
109 -111 0
-16 -109 111 0
-16 -109 -112 0
16 109 -112 0
-16 109 112 0
16 -109 112 0
100 -113 0
9 -113 0
-9 -100 113 0
-9 -100 -114 0
9 100 -114 0
9 -100 114 0
-9 100 114 0
-10 -102 115 0
-102 -113 115 0
-10 -113 115 0
10 102 -115 0
102 113 -115 0
10 113 -115 0
102 -115 -116 0
10 -115 -116 0
113 -115 -116 0
-102 115 116 0
-10 115 116 0
-113 115 116 0
-10 -102 -113 116 0
10 102 113 -116 0
-11 -104 117 0
-104 -115 117 0
-11 -115 117 0
11 104 -117 0
104 115 -117 0
11 115 -117 0
104 -117 -118 0
11 -117 -118 0
115 -117 -118 0
-104 117 118 0
-11 117 118 0
-115 117 118 0
-11 -104 -115 118 0
11 104 115 -118 0
-12 -106 119 0
-106 -117 119 0
-12 -117 119 0
12 106 -119 0
106 117 -119 0
12 117 -119 0
106 -119 -120 0
12 -119 -120 0
117 -119 -120 0
-106 119 120 0
-12 119 120 0
-117 119 120 0
-12 -106 -117 120 0
12 106 117 -120 0
-13 -108 121 0
-108 -119 121 0
-13 -119 121 0
13 108 -121 0
108 119 -121 0
13 119 -121 0
108 -121 -122 0
13 -121 -122 0
119 -121 -122 0
-108 121 122 0
-13 121 122 0
-119 121 122 0
-13 -108 -119 122 0
13 108 119 -122 0
-14 -110 123 0
-110 -121 123 0
-14 -121 123 0
14 110 -123 0
110 121 -123 0
14 121 -123 0
110 -123 -124 0
14 -123 -124 0
121 -123 -124 0
-110 123 124 0
-14 123 124 0
-121 123 124 0
-14 -110 -121 124 0
14 110 121 -124 0
-15 -112 125 0
-112 -123 125 0
-15 -123 125 0
15 112 -125 0
112 123 -125 0
15 123 -125 0
112 -125 -126 0
15 -125 -126 0
123 -125 -126 0
-112 125 126 0
-15 125 126 0
-123 125 126 0
-15 -112 -123 126 0
15 112 123 -126 0
-16 -111 127 0
-111 -125 127 0
-16 -125 127 0
16 111 -127 0
111 125 -127 0
16 125 -127 0
111 -127 -128 0
16 -127 -128 0
125 -127 -128 0
-111 127 128 0
-16 127 128 0
-125 127 128 0
-16 -111 -125 128 0
16 111 125 -128 0
-9 -129 0
-10 -129 0
9 10 129 0
9 10 -130 0
-9 -10 -130 0
-9 10 130 0
9 -10 130 0
129 -131 0
-98 -131 0
98 -129 131 0
98 -129 -132 0
-98 129 -132 0
98 129 132 0
-98 -129 132 0
131 -133 0
-114 -133 0
114 -131 133 0
114 -131 -134 0
-114 131 -134 0
114 131 134 0
-114 -131 134 0
133 -135 0
-116 -135 0
116 -133 135 0
116 -133 -136 0
-116 133 -136 0
116 133 136 0
-116 -133 136 0
135 -137 0
-118 -137 0
118 -135 137 0
118 -135 -138 0
-118 135 -138 0
118 135 138 0
-118 -135 138 0
137 -139 0
-120 -139 0
120 -137 139 0
120 -137 -140 0
-120 137 -140 0
120 137 140 0
-120 -137 140 0
139 -141 0
-122 -141 0
122 -139 141 0
122 -139 -142 0
-122 139 -142 0
122 139 142 0
-122 -139 142 0
141 -143 0
-124 -143 0
124 -141 143 0
124 -141 -144 0
-124 141 -144 0
124 141 144 0
-124 -141 144 0
143 -145 0
-126 -145 0
126 -143 145 0
126 -143 -146 0
-126 143 -146 0
126 143 146 0
-126 -143 146 0
145 -147 0
-128 -147 0
128 -145 147 0
128 -145 -148 0
-128 145 -148 0
128 145 148 0
-128 -145 148 0
147 -149 0
-127 -149 0
127 -147 149 0
127 -147 -150 0
-127 147 -150 0
127 147 150 0
-127 -147 150 0
1 -151 0
10 -151 0
-1 -10 151 0
-1 -10 -152 0
1 10 -152 0
-1 10 152 0
1 -10 152 0
-2 -98 153 0
-2 -151 153 0
-98 -151 153 0
2 98 -153 0
2 151 -153 0
98 151 -153 0
2 -153 -154 0
98 -153 -154 0
151 -153 -154 0
-2 153 154 0
-98 153 154 0
-151 153 154 0
-2 -98 -151 154 0
2 98 151 -154 0
-48 -114 155 0
-48 -153 155 0
-114 -153 155 0
48 114 -155 0
48 153 -155 0
114 153 -155 0
48 -155 -156 0
114 -155 -156 0
153 -155 -156 0
-48 155 156 0
-114 155 156 0
-153 155 156 0
-48 -114 -153 156 0
48 114 153 -156 0
-50 -116 157 0
-50 -155 157 0
-116 -155 157 0
50 116 -157 0
50 155 -157 0
116 155 -157 0
50 -157 -158 0
116 -157 -158 0
155 -157 -158 0
-50 157 158 0
-116 157 158 0
-155 157 158 0
-50 -116 -155 158 0
50 116 155 -158 0
-52 -118 159 0
-52 -157 159 0
-118 -157 159 0
52 118 -159 0
52 157 -159 0
118 157 -159 0
52 -159 -160 0
118 -159 -160 0
157 -159 -160 0
-52 159 160 0
-118 159 160 0
-157 159 160 0
-52 -118 -157 160 0
52 118 157 -160 0
-54 -120 161 0
-54 -159 161 0
-120 -159 161 0
54 120 -161 0
54 159 -161 0
120 159 -161 0
54 -161 -162 0
120 -161 -162 0
159 -161 -162 0
-54 161 162 0
-120 161 162 0
-159 161 162 0
-54 -120 -159 162 0
54 120 159 -162 0
-56 -122 163 0
-56 -161 163 0
-122 -161 163 0
56 122 -163 0
56 161 -163 0
122 161 -163 0
56 -163 -164 0
122 -163 -164 0
161 -163 -164 0
-56 163 164 0
-122 163 164 0
-161 163 164 0
-56 -122 -161 164 0
56 122 161 -164 0
-58 -124 165 0
-58 -163 165 0
-124 -163 165 0
58 124 -165 0
58 163 -165 0
124 163 -165 0
58 -165 -166 0
124 -165 -166 0
163 -165 -166 0
-58 165 166 0
-124 165 166 0
-163 165 166 0
-58 -124 -163 166 0
58 124 163 -166 0
-60 -126 167 0
-60 -165 167 0
-126 -165 167 0
60 126 -167 0
60 165 -167 0
126 165 -167 0
60 -167 -168 0
126 -167 -168 0
165 -167 -168 0
-60 167 168 0
-126 167 168 0
-165 167 168 0
-60 -126 -165 168 0
60 126 165 -168 0
-62 -128 169 0
-62 -167 169 0
-128 -167 169 0
62 128 -169 0
62 167 -169 0
128 167 -169 0
62 -169 -170 0
128 -169 -170 0
167 -169 -170 0
-62 169 170 0
-128 169 170 0
-167 169 170 0
-62 -128 -167 170 0
62 128 167 -170 0
-61 -127 171 0
-61 -169 171 0
-127 -169 171 0
61 127 -171 0
61 169 -171 0
127 169 -171 0
61 -171 -172 0
127 -171 -172 0
169 -171 -172 0
-61 171 172 0
-127 171 172 0
-169 171 172 0
-61 -127 -169 172 0
61 127 169 -172 0
-9 -173 0
152 -173 0
-154 -173 0
156 -173 0
158 -173 0
160 -173 0
-162 -173 0
164 -173 0
-166 -173 0
-168 -173 0
-170 -173 0
-171 -173 0
-172 -173 0
9 -152 154 -156 -158 -160 162 -164 166 168 170 171 172 173 0
173 0
c main::$tmp::return_value_nondet_char!0@1#1 17 18 19 20 21 22 23 24
c symex::nondet1 9 10 11 12 13 14 15 16
c symex::nondet0 1 2 3 4 5 6 7 8
c main::$tmp::return_value_nondet_char$0!0@1#2 9 10 11 12 13 14 15 16
c __CPROVER_rounding_mode!0#1 FALSE FALSE FALSE FALSE FALSE FALSE FALSE FALSE FALSE FALSE FALSE FALSE FALSE FALSE FALSE FALSE FALSE FALSE FALSE FALSE FALSE FALSE FALSE FALSE FALSE FALSE FALSE FALSE FALSE FALSE FALSE FALSE
c main::$tmp::return_value_nondet_char$0!0@1#1 25 26 27 28 29 30 31 32
c __CPROVER_memory_leak#1 FALSE FALSE FALSE FALSE FALSE FALSE FALSE FALSE FALSE FALSE FALSE FALSE FALSE FALSE FALSE FALSE FALSE FALSE FALSE FALSE FALSE FALSE FALSE FALSE FALSE FALSE FALSE FALSE FALSE FALSE FALSE FALSE FALSE FALSE FALSE FALSE FALSE FALSE FALSE FALSE FALSE FALSE FALSE FALSE FALSE FALSE FALSE FALSE FALSE FALSE FALSE FALSE FALSE FALSE FALSE FALSE FALSE FALSE FALSE FALSE FALSE FALSE FALSE FALSE
c __CPROVER_max_malloc_size#1 FALSE FALSE FALSE FALSE FALSE FALSE FALSE FALSE FALSE FALSE FALSE FALSE FALSE FALSE FALSE FALSE FALSE FALSE FALSE FALSE FALSE FALSE FALSE FALSE FALSE FALSE FALSE FALSE FALSE FALSE FALSE FALSE FALSE FALSE FALSE FALSE FALSE FALSE FALSE FALSE FALSE FALSE FALSE FALSE FALSE FALSE FALSE FALSE FALSE FALSE FALSE FALSE FALSE FALSE FALSE TRUE FALSE FALSE FALSE FALSE FALSE FALSE FALSE FALSE
c __CPROVER_deallocated#1 FALSE FALSE FALSE FALSE FALSE FALSE FALSE FALSE FALSE FALSE FALSE FALSE FALSE FALSE FALSE FALSE FALSE FALSE FALSE FALSE FALSE FALSE FALSE FALSE FALSE FALSE FALSE FALSE FALSE FALSE FALSE FALSE FALSE FALSE FALSE FALSE FALSE FALSE FALSE FALSE FALSE FALSE FALSE FALSE FALSE FALSE FALSE FALSE FALSE FALSE FALSE FALSE FALSE FALSE FALSE FALSE FALSE FALSE FALSE FALSE FALSE FALSE FALSE FALSE
c main::$tmp::return_value_nondet_char!0@1#2 1 2 3 4 5 6 7 8
c __CPROVER_dead_object#1 FALSE FALSE FALSE FALSE FALSE FALSE FALSE FALSE FALSE FALSE FALSE FALSE FALSE FALSE FALSE FALSE FALSE FALSE FALSE FALSE FALSE FALSE FALSE FALSE FALSE FALSE FALSE FALSE FALSE FALSE FALSE FALSE FALSE FALSE FALSE FALSE FALSE FALSE FALSE FALSE FALSE FALSE FALSE FALSE FALSE FALSE FALSE FALSE FALSE FALSE FALSE FALSE FALSE FALSE FALSE FALSE FALSE FALSE FALSE FALSE FALSE FALSE FALSE FALSE
